Minimize
  - 50 y_0 - 50 y_1 - 13 y_3 - 12 y_4 - 36 y_5 - 6 y_6 - 50 y_7 - 50 y_8
   - 27 y_9 - 36 y_10 - 43 y_11 - 36 y_12 - 35 y_13 - 49 y_14 - 38 y_15
   - 34 y_16 - 40 y_17 - 47 y_18 - 55 y_19 + 707 Constant
Subject To
 c_0: y_7 = 1
 c_1_0: y_0 >= 1
 c_1_1: y_1 >= 1
 c_1_2: y_2 >= 1
 c_1_3: y_3 >= 1
 c_1_4: y_4 >= 1
 c_1_5: y_5 + y_13 + y_15 >= 1
 c_1_6: y_6 >= 1
 c_1_7: y_7 >= 1
 c_1_8: y_8 >= 1
 c_1_9: y_9 >= 1
 c_1_10: y_10 >= 1
 c_1_11: y_11 >= 1
 c_1_12: y_12 + y_16 >= 1
 c_1_13: y_5 + y_13 >= 1
 c_1_14: y_14 >= 1
 c_1_15: y_5 + y_15 >= 1
 c_1_16: y_12 + y_16 >= 1
 c_1_17: y_17 >= 1
 c_1_18: y_18 >= 1
 c_1_19: y_19 >= 1
Bounds
 Constant = 1
Binaries
 y_0 y_1 y_2 y_3 y_4 y_5 y_6 y_7 y_8 y_9 y_10 y_11 y_12 y_13 y_14 y_15 y_16
 y_17 y_18 y_19
End
